3707 3542
1152 1051
2626 2346
3234 2988
3214 2793
3214 3312
2329 2064
2329 2359
2329 2374
2329 2578
169 277
3881 3534
3881 3601
3881 3711
2988 2915
2445 1577
2445 2436
492 517
492 542
404 542
2064 2359
2064 2381
2064 2556
2064 2578
2064 2630
1214 1530
1214 1772
3355 2793
2381 2359
2381 2374
2381 2556
2381 2578
2381 2630
697 709
2850 2915
3581 3479
1135 1688
1577 2247
1577 2436
2578 2359
2578 2374
2578 2556
2578 2630
3547 3747
2630 2374
2630 2556
1344 1688
2359 2374
2374 2556
2277 2474
